122     4       
19      16      17      12      
0       0       0       0       0       3       2       3       4       
2       0       0       0       8       3       28      39      40      
5       0       0       5       0       3       5       9       19      
9       0       0       2       0       3       7       15      62      
3       0       0       0       6       3       6       8       68      
8       0       8       0       0       2       66      71      
2       0       1       0       0       3       11      34      47      
7       0       4       0       0       3       14      16      33      
8       0       5       0       0       3       10      13      48      
7       9       0       0       0       3       12      17      30      
4       4       0       0       0       3       27      29      53      
2       0       5       0       0       3       22      67      83      
1       0       6       0       0       2       27      40      
1       0       0       0       10      3       18      23      35      
5       0       2       0       0       3       20      22      26      
7       0       5       0       0       3       17      21      62      
10      0       7       0       0       2       46      72      
9       3       0       0       0       3       44      62      88      
5       0       0       7       0       3       24      25      60      
6       0       0       8       0       3       39      70      108     
1       0       0       2       0       3       30      57      101     
8       0       0       5       0       3       34      37      100     
10      0       4       0       0       1       31      
9       5       0       0       0       2       32      51      
4       0       0       4       0       3       36      49      78      
1       0       0       0       6       3       67      109     119     
9       5       0       0       0       3       35      41      66      
4       8       0       0       0       3       38      64      70      
5       3       0       0       0       3       69      81      90      
7       2       0       0       0       3       60      76      120     
5       0       0       10      0       2       59      113     
5       7       0       0       0       2       35      42      
9       0       6       0       0       3       76      81      104     
7       9       0       0       0       3       54      59      74      
1       0       3       0       0       3       43      98      99      
6       8       0       0       0       3       42      50      79      
5       6       0       0       0       3       58      64      78      
3       0       0       2       0       1       109     
2       0       0       0       3       2       41      56      
1       0       0       0       9       2       65      97      
5       0       0       4       0       3       51      54      77      
1       0       9       0       0       3       45      82      95      
8       2       0       0       0       2       56      73      
2       3       0       0       0       2       69      103     
2       0       5       0       0       3       61      75      77      
2       0       5       0       0       2       52      55      
10      0       0       4       0       2       64      110     
1       0       10      0       0       3       51      66      80      
5       0       0       6       0       3       56      76      84      
4       0       0       7       0       2       81      92      
5       1       0       0       0       3       61      85      101     
5       0       0       9       0       2       54      96      
6       0       0       7       0       3       55      87      92      
9       0       0       0       8       2       63      105     
4       0       1       0       0       2       65      73      
1       0       10      0       0       2       59      79      
5       0       0       0       2       3       63      80      87      
7       2       0       0       0       2       77      89      
3       0       0       9       0       2       63      102     
4       0       0       1       0       3       61      90      116     
3       7       0       0       0       3       71      93      115     
5       7       0       0       0       2       86      87      
6       0       9       0       0       1       118     
2       0       0       3       0       1       103     
10      0       0       9       0       3       70      71      74      
5       3       0       0       0       3       72      83      106     
4       0       0       9       0       3       69      73      82      
7       0       1       0       0       3       72      75      90      
10      5       0       0       0       1       86      
5       0       0       3       0       2       75      91      
7       2       0       0       0       1       83      
9       0       5       0       0       2       78      117     
3       0       0       0       9       1       94      
4       2       0       0       0       3       104     108     114     
4       0       3       0       0       3       85      93      116     
5       0       9       0       0       2       96      107     
3       0       0       8       0       1       111     
8       3       0       0       0       3       91      92      98      
5       0       5       0       0       2       82      88      
7       7       0       0       0       3       85      99      100     
2       0       5       0       0       2       86      111     
2       8       0       0       0       1       94      
8       0       0       4       0       3       88      105     110     
10      0       3       0       0       2       89      95      
1       0       4       0       0       1       102     
2       7       0       0       0       1       89      
7       0       0       0       7       3       91      95      112     
10      0       0       0       9       1       100     
6       0       0       0       2       2       94      98      
10      5       0       0       0       2       97      106     
3       0       0       0       5       1       116     
2       4       0       0       0       2       93      103     
8       0       0       2       0       1       114     
8       0       9       0       0       3       96      101     120     
1       0       0       0       6       3       97      118     121     
5       0       10      0       0       1       117     
3       0       6       0       0       2       99      108     
2       0       0       0       2       1       118     
9       0       2       0       0       3       102     104     105     
4       0       5       0       0       1       109     
4       0       0       8       0       1       106     
7       0       0       7       0       1       107     
9       10      0       0       0       1       107     
9       0       0       2       0       1       113     
9       0       2       0       0       1       114     
4       7       0       0       0       1       110     
3       6       0       0       0       1       111     
2       0       5       0       0       1       113     
2       4       0       0       0       1       112     
6       0       0       10      0       1       112     
5       0       9       0       0       1       115     
5       10      0       0       0       1       117     
6       0       0       9       0       1       115     
10      0       0       7       0       1       119     
2       0       0       0       5       1       119     
8       0       0       8       0       1       121     
7       6       0       0       0       1       121     
10      0       0       2       0       1       120     
7       0       8       0       0       1       122     
3       0       0       3       0       1       122     
4       4       0       0       0       1       122     
0       0       0       0       0       0       